(set-info :smt-lib-version 2.6)
(set-info :category "crafted")
(set-logic QF_FFA)
(define-sort FF0 () (_ FiniteField 52435875175126190479447740508185965837690552500527637822603658699938581184513))
(declare-fun j () Bool)
(declare-fun b () Bool)
(declare-fun d () Bool)
(declare-fun c () Bool)
(declare-fun a () Bool)
(declare-fun l () Bool)
(declare-fun e () Bool)
(declare-fun f () Bool)
(declare-fun i () Bool)
(declare-fun k () Bool)
(declare-fun g () Bool)
(declare-fun h () Bool)
(declare-fun out () FF0)
(declare-fun _51 () FF0)
(declare-fun _50 () FF0)
(declare-fun _13 () FF0)
(declare-fun _49 () FF0)
(declare-fun _31 () FF0)
(declare-fun _48 () FF0)
(declare-fun _46 () FF0)
(declare-fun _47 () FF0)
(declare-fun _10 () FF0)
(declare-fun _9 () FF0)
(declare-fun _2 () FF0)
(declare-fun _45 () FF0)
(declare-fun _8 () FF0)
(declare-fun _44 () FF0)
(declare-fun _43 () FF0)
(declare-fun _42 () FF0)
(declare-fun _19 () FF0)
(declare-fun _18 () FF0)
(declare-fun _41 () FF0)
(declare-fun _6 () FF0)
(declare-fun _39 () FF0)
(declare-fun _38 () FF0)
(declare-fun _27 () FF0)
(declare-fun _33 () FF0)
(declare-fun _7 () FF0)
(declare-fun _25 () FF0)
(declare-fun _24 () FF0)
(declare-fun _30 () FF0)
(declare-fun _29 () FF0)
(declare-fun _11 () FF0)
(declare-fun _28 () FF0)
(declare-fun _0 () FF0)
(declare-fun _5 () FF0)
(declare-fun _4 () FF0)
(declare-fun _3 () FF0)
(declare-fun _1 () FF0)
(assert 
  (let ((let0 j))
  (let ((let1 (not let0)))
  (let ((let2 b))
  (let ((let3 (=> let2 let1)))
  (let ((let4 (not let3)))
  (let ((let5 d))
  (let ((let6 c))
  (let ((let7 a))
  (let ((let8 (ite let5 let7 let6)))
  (let ((let9 (ite let8 let2 let5)))
  (let ((let10 l))
  (let ((let11 e))
  (let ((let12 f))
  (let ((let13 (=> let12 let11)))
  (let ((let14 (or let13 let3 let7 let10 let9)))
  (let ((let15 (not let14)))
  (let ((let16 i))
  (let ((let17 k))
  (let ((let18 g))
  (let ((let19 h))
  (let ((let20 (= let19 let9)))
  (let ((let21 (ite let19 let16 let20)))
  (let ((let22 (or let13 let21 let18 let8 let0)))
  (let ((let23 (=> let22 let17)))
  (let ((let24 (=> let23 let16)))
  (let ((let25 (=> let6 let1)))
  (let ((let26 (or let25 let17)))
  (let ((let27 (or let26 let24 let15 let4)))
  (let ((let28 out))
  (let ((let29 (as ff1 FF0)))
  (let ((let30 (= let29 let28)))
  (let ((let31 (= let30 let27)))
  (let ((let32 (as ff0 FF0)))
  (let ((let33 (= let32 let28)))
  (let ((let34 (or let30 let33)))
  (let ((let35 (and let34 let31)))
  (let ((let36 _51))
  (let ((let37 (= let36 let28)))
  (let ((let38 (as ff52435875175126190479447740508185965837690552500527637822603658699938581184512 FF0)))
  (let ((let39 (ff.mul let36 let38)))
  (let ((let40 _50))
  (let ((let41 _13))
  (let ((let42 (ff.mul let41 let38)))
  (let ((let43 (ff.add let42 let40 let39 let29)))
  (let ((let44 (ff.add let42 let29)))
  (let ((let45 (ff.mul let40 let44)))
  (let ((let46 (= let45 let43)))
  (let ((let47 (ff.mul let40 let38)))
  (let ((let48 _49))
  (let ((let49 _31))
  (let ((let50 (ff.mul let49 let38)))
  (let ((let51 (ff.add let50 let48 let47 let29)))
  (let ((let52 (ff.add let50 let29)))
  (let ((let53 (ff.mul let48 let52)))
  (let ((let54 (= let53 let51)))
  (let ((let55 (ff.mul let48 let38)))
  (let ((let56 _48))
  (let ((let57 _46))
  (let ((let58 (ff.add let57 let56 let55)))
  (let ((let59 (ff.mul let56 let57)))
  (let ((let60 (= let59 let58)))
  (let ((let61 (ff.mul let56 let38)))
  (let ((let62 _47))
  (let ((let63 _10))
  (let ((let64 (ff.add let63 let62 let61)))
  (let ((let65 (ff.mul let62 let63)))
  (let ((let66 (= let65 let64)))
  (let ((let67 (as ff2 FF0)))
  (let ((let68 (ff.mul let62 let38)))
  (let ((let69 _9))
  (let ((let70 (ff.mul let69 let38)))
  (let ((let71 _2))
  (let ((let72 (ff.mul let71 let38)))
  (let ((let73 (ff.add let72 let70 let68 let67)))
  (let ((let74 (ff.add let70 let29)))
  (let ((let75 (ff.add let72 let29)))
  (let ((let76 (ff.mul let75 let74)))
  (let ((let77 (= let76 let73)))
  (let ((let78 (ff.mul let57 let38)))
  (let ((let79 _45))
  (let ((let80 (ff.mul let79 let38)))
  (let ((let81 _8))
  (let ((let82 (ff.add let81 let80 let78 let29)))
  (let ((let83 (ff.add let80 let29)))
  (let ((let84 (ff.mul let83 let81)))
  (let ((let85 (= let84 let82)))
  (let ((let86 _44))
  (let ((let87 (ff.mul let86 let38)))
  (let ((let88 (ff.add let63 let87 let80 let29)))
  (let ((let89 (ff.add let87 let29)))
  (let ((let90 (ff.mul let89 let63)))
  (let ((let91 (= let90 let88)))
  (let ((let92 _43))
  (let ((let93 (ff.add let69 let92 let87)))
  (let ((let94 (ff.mul let92 let69)))
  (let ((let95 (= let94 let93)))
  (let ((let96 (ff.mul let92 let38)))
  (let ((let97 _42))
  (let ((let98 _19))
  (let ((let99 _18))
  (let ((let100 (ff.add let99 let98 let97 let96)))
  (let ((let101 (ff.add let99 let98)))
  (let ((let102 (ff.mul let97 let101)))
  (let ((let103 (= let102 let100)))
  (let ((let104 (ff.mul let97 let38)))
  (let ((let105 _41))
  (let ((let106 _6))
  (let ((let107 (ff.add let106 let105 let104)))
  (let ((let108 (ff.mul let105 let106)))
  (let ((let109 (= let108 let107)))
  (let ((let110 (ff.mul let105 let38)))
  (let ((let111 _39))
  (let ((let112 _38))
  (let ((let113 _27))
  (let ((let114 (ff.add let113 let112 let111 let110)))
  (let ((let115 (ff.add let112 let111)))
  (let ((let116 (ff.mul let113 let115)))
  (let ((let117 (= let116 let114)))
  (let ((let118 _33))
  (let ((let119 (ff.mul let118 let38)))
  (let ((let120 (ff.add let119 let29)))
  (let ((let121 _7))
  (let ((let122 (ff.mul let121 let38)))
  (let ((let123 (ff.add let122 let29)))
  (let ((let124 (ff.mul let123 let120)))
  (let ((let125 (= let124 let111)))
  (let ((let126 (ff.mul let121 let81)))
  (let ((let127 (= let126 let112)))
  (let ((let128 _25))
  (let ((let129 (ff.mul let128 let38)))
  (let ((let130 _24))
  (let ((let131 (ff.mul let130 let38)))
  (let ((let132 (ff.add let121 let131 let129)))
  (let ((let133 (ff.mul let132 let132)))
  (let ((let134 (= let133 let118)))
  (let ((let135 _30))
  (let ((let136 (ff.add let130 let128 let135 let50)))
  (let ((let137 (ff.add let130 let128)))
  (let ((let138 (ff.mul let135 let137)))
  (let ((let139 (= let138 let136)))
  (let ((let140 (ff.mul let135 let38)))
  (let ((let141 _29))
  (let ((let142 _11))
  (let ((let143 (ff.add let142 let141 let140)))
  (let ((let144 (ff.mul let141 let142)))
  (let ((let145 (= let144 let143)))
  (let ((let146 (ff.mul let141 let38)))
  (let ((let147 _28))
  (let ((let148 _0))
  (let ((let149 (ff.add let148 let147 let146)))
  (let ((let150 (ff.mul let147 let148)))
  (let ((let151 (= let150 let149)))
  (let ((let152 (ff.mul let147 let38)))
  (let ((let153 (ff.add let41 let113 let152)))
  (let ((let154 (ff.mul let113 let41)))
  (let ((let155 (= let154 let153)))
  (let ((let156 (ff.mul let113 let38)))
  (let ((let157 _5))
  (let ((let158 (ff.mul let157 let38)))
  (let ((let159 _4))
  (let ((let160 (ff.add let159 let158 let156 let29)))
  (let ((let161 (ff.add let158 let29)))
  (let ((let162 (ff.mul let161 let159)))
  (let ((let163 (= let162 let160)))
  (let ((let164 _3))
  (let ((let165 (ff.mul let98 let38)))
  (let ((let166 (ff.mul let99 let38)))
  (let ((let167 (ff.add let166 let165 let29)))
  (let ((let168 (ff.mul let167 let164)))
  (let ((let169 (= let168 let128)))
  (let ((let170 _1))
  (let ((let171 (ff.mul let101 let170)))
  (let ((let172 (= let171 let130)))
  (let ((let173 (ff.mul let164 let38)))
  (let ((let174 (ff.add let173 let29)))
  (let ((let175 (ff.mul let174 let71)))
  (let ((let176 (= let175 let98)))
  (let ((let177 (ff.mul let164 let148)))
  (let ((let178 (= let177 let99)))
  (let ((let179 (ff.mul let170 let38)))
  (let ((let180 (ff.add let179 let70 let42 let67)))
  (let ((let181 (ff.add let179 let29)))
  (let ((let182 (ff.mul let181 let74)))
  (let ((let183 (= let182 let180)))
  (let ((let184 (ff.mul let142 let142)))
  (let ((let185 (= let184 let142)))
  (let ((let186 (ff.mul let63 let63)))
  (let ((let187 (= let186 let63)))
  (let ((let188 (ff.mul let69 let69)))
  (let ((let189 (= let188 let69)))
  (let ((let190 (ff.mul let81 let81)))
  (let ((let191 (= let190 let81)))
  (let ((let192 (ff.mul let121 let121)))
  (let ((let193 (= let192 let121)))
  (let ((let194 (ff.mul let106 let106)))
  (let ((let195 (= let194 let106)))
  (let ((let196 (ff.mul let157 let157)))
  (let ((let197 (= let196 let157)))
  (let ((let198 (ff.mul let159 let159)))
  (let ((let199 (= let198 let159)))
  (let ((let200 (ff.mul let164 let164)))
  (let ((let201 (= let200 let164)))
  (let ((let202 (ff.mul let71 let71)))
  (let ((let203 (= let202 let71)))
  (let ((let204 (ff.mul let170 let170)))
  (let ((let205 (= let204 let170)))
  (let ((let206 (ff.mul let148 let148)))
  (let ((let207 (= let206 let148)))
  (let ((let208 (and let207 let205 let203 let201 let199 let197 let195 let193 let191 let189 let187 let185 let183 let178 let176 let172 let169 let163 let155 let151 let145 let139 let134 let127 let125 let117 let109 let103 let95 let91 let85 let77 let66 let60 let54 let46 let37)))
  (let ((let209 (ite let16 let29 let32)))
  (let ((let210 (= let81 let209)))
  (let ((let211 (ite let19 let29 let32)))
  (let ((let212 (= let121 let211)))
  (let ((let213 (ite let6 let29 let32)))
  (let ((let214 (= let71 let213)))
  (let ((let215 (ite let2 let29 let32)))
  (let ((let216 (= let170 let215)))
  (let ((let217 (ite let10 let29 let32)))
  (let ((let218 (= let142 let217)))
  (let ((let219 (ite let5 let29 let32)))
  (let ((let220 (= let164 let219)))
  (let ((let221 (ite let7 let29 let32)))
  (let ((let222 (= let148 let221)))
  (let ((let223 (ite let17 let29 let32)))
  (let ((let224 (= let63 let223)))
  (let ((let225 (ite let18 let29 let32)))
  (let ((let226 (= let106 let225)))
  (let ((let227 (ite let11 let29 let32)))
  (let ((let228 (= let159 let227)))
  (let ((let229 (ite let0 let29 let32)))
  (let ((let230 (= let69 let229)))
  (let ((let231 (ite let12 let29 let32)))
  (let ((let232 (= let157 let231)))
  (let ((let233 (and let232 let230 let228 let226 let224 let222 let220 let218 let216 let214 let212 let210)))
  (let ((let234 (and let233 let208)))
  (let ((let235 (=> let234 let35)))
  (let ((let236 (not let235)))
  let236
)))))))))))))))))))))))))))))))))))))))))))))))))))))))))))))))))))))))))))))))))))))))))))))))))))))))))))))))))))))))))))))))))))))))))))))))))))))))))))))))))))))))))))))))))))))))))))))))))))))))))))))))))))))))))))))))))))))))))))))
)
(check-sat)
